c Optimised CNF encoding for 9x9 Sudoku
c Source: sudoku_9x9_higher_clue_03.txt
c Variables: 295  Clauses: 2661
p cnf 295 2661
1 2 3 4 0
5 6 7 8 9 0
10 11 12 13 14 0
15 16 17 18 19 0
20 21 22 0
23 24 25 26 0
27 28 29 30 31 0
32 33 34 35 0
36 37 38 39 40 41 0
42 43 44 45 46 47 0
48 49 50 51 0
52 53 54 55 56 0
57 58 59 60 0
61 62 63 64 0
65 66 67 68 0
69 70 71 0
72 73 74 75 76 0
77 78 79 80 81 0
82 83 84 85 86 0
87 88 89 90 0
91 92 93 94 95 0
96 97 98 99 0
100 101 102 103 0
104 105 106 107 0
108 109 110 111 112 113 0
114 115 116 117 118 0
119 120 121 122 123 0
124 125 126 127 0
128 129 130 131 132 0
133 134 135 136 137 0
138 139 140 141 142 0
143 144 145 146 0
147 148 149 150 151 152 0
153 154 155 156 0
157 158 159 160 0
161 162 163 164 165 166 0
167 168 169 170 171 172 0
173 174 175 176 177 178 0
179 180 181 182 183 0
184 185 186 187 188 189 0
190 191 192 193 194 0
195 196 197 198 199 0
200 201 202 203 204 0
205 206 207 208 209 0
210 211 212 213 214 0
215 216 217 218 219 0
220 221 222 223 224 0
225 226 227 0
228 229 230 0
231 232 233 234 0
235 236 237 238 0
239 240 241 242 243 0
244 245 246 247 248 0
249 250 251 252 253 0
254 255 256 257 258 0
259 260 261 262 263 264 0
265 266 267 268 0
269 270 271 272 273 0
274 275 276 277 278 0
279 280 281 282 283 0
284 285 286 287 0
288 289 290 0
291 292 293 294 295 0
-1 -2 0
-1 -3 0
-1 -4 0
-2 -3 0
-2 -4 0
-3 -4 0
-5 -6 0
-5 -7 0
-5 -8 0
-5 -9 0
-6 -7 0
-6 -8 0
-6 -9 0
-7 -8 0
-7 -9 0
-8 -9 0
-10 -11 0
-10 -12 0
-10 -13 0
-10 -14 0
-11 -12 0
-11 -13 0
-11 -14 0
-12 -13 0
-12 -14 0
-13 -14 0
-15 -16 0
-15 -17 0
-15 -18 0
-15 -19 0
-16 -17 0
-16 -18 0
-16 -19 0
-17 -18 0
-17 -19 0
-18 -19 0
-20 -21 0
-20 -22 0
-21 -22 0
-23 -24 0
-23 -25 0
-23 -26 0
-24 -25 0
-24 -26 0
-25 -26 0
-27 -28 0
-27 -29 0
-27 -30 0
-27 -31 0
-28 -29 0
-28 -30 0
-28 -31 0
-29 -30 0
-29 -31 0
-30 -31 0
-32 -33 0
-32 -34 0
-32 -35 0
-33 -34 0
-33 -35 0
-34 -35 0
-36 -37 0
-36 -38 0
-36 -39 0
-36 -40 0
-36 -41 0
-37 -38 0
-37 -39 0
-37 -40 0
-37 -41 0
-38 -39 0
-38 -40 0
-38 -41 0
-39 -40 0
-39 -41 0
-40 -41 0
-42 -43 0
-42 -44 0
-42 -45 0
-42 -46 0
-42 -47 0
-43 -44 0
-43 -45 0
-43 -46 0
-43 -47 0
-44 -45 0
-44 -46 0
-44 -47 0
-45 -46 0
-45 -47 0
-46 -47 0
-48 -49 0
-48 -50 0
-48 -51 0
-49 -50 0
-49 -51 0
-50 -51 0
-52 -53 0
-52 -54 0
-52 -55 0
-52 -56 0
-53 -54 0
-53 -55 0
-53 -56 0
-54 -55 0
-54 -56 0
-55 -56 0
-57 -58 0
-57 -59 0
-57 -60 0
-58 -59 0
-58 -60 0
-59 -60 0
-61 -62 0
-61 -63 0
-61 -64 0
-62 -63 0
-62 -64 0
-63 -64 0
-65 -66 0
-65 -67 0
-65 -68 0
-66 -67 0
-66 -68 0
-67 -68 0
-69 -70 0
-69 -71 0
-70 -71 0
-72 -73 0
-72 -74 0
-72 -75 0
-72 -76 0
-73 -74 0
-73 -75 0
-73 -76 0
-74 -75 0
-74 -76 0
-75 -76 0
-77 -78 0
-77 -79 0
-77 -80 0
-77 -81 0
-78 -79 0
-78 -80 0
-78 -81 0
-79 -80 0
-79 -81 0
-80 -81 0
-82 -83 0
-82 -84 0
-82 -85 0
-82 -86 0
-83 -84 0
-83 -85 0
-83 -86 0
-84 -85 0
-84 -86 0
-85 -86 0
-87 -88 0
-87 -89 0
-87 -90 0
-88 -89 0
-88 -90 0
-89 -90 0
-91 -92 0
-91 -93 0
-91 -94 0
-91 -95 0
-92 -93 0
-92 -94 0
-92 -95 0
-93 -94 0
-93 -95 0
-94 -95 0
-96 -97 0
-96 -98 0
-96 -99 0
-97 -98 0
-97 -99 0
-98 -99 0
-100 -101 0
-100 -102 0
-100 -103 0
-101 -102 0
-101 -103 0
-102 -103 0
-104 -105 0
-104 -106 0
-104 -107 0
-105 -106 0
-105 -107 0
-106 -107 0
-108 -109 0
-108 -110 0
-108 -111 0
-108 -112 0
-108 -113 0
-109 -110 0
-109 -111 0
-109 -112 0
-109 -113 0
-110 -111 0
-110 -112 0
-110 -113 0
-111 -112 0
-111 -113 0
-112 -113 0
-114 -115 0
-114 -116 0
-114 -117 0
-114 -118 0
-115 -116 0
-115 -117 0
-115 -118 0
-116 -117 0
-116 -118 0
-117 -118 0
-119 -120 0
-119 -121 0
-119 -122 0
-119 -123 0
-120 -121 0
-120 -122 0
-120 -123 0
-121 -122 0
-121 -123 0
-122 -123 0
-124 -125 0
-124 -126 0
-124 -127 0
-125 -126 0
-125 -127 0
-126 -127 0
-128 -129 0
-128 -130 0
-128 -131 0
-128 -132 0
-129 -130 0
-129 -131 0
-129 -132 0
-130 -131 0
-130 -132 0
-131 -132 0
-133 -134 0
-133 -135 0
-133 -136 0
-133 -137 0
-134 -135 0
-134 -136 0
-134 -137 0
-135 -136 0
-135 -137 0
-136 -137 0
-138 -139 0
-138 -140 0
-138 -141 0
-138 -142 0
-139 -140 0
-139 -141 0
-139 -142 0
-140 -141 0
-140 -142 0
-141 -142 0
-143 -144 0
-143 -145 0
-143 -146 0
-144 -145 0
-144 -146 0
-145 -146 0
-147 -148 0
-147 -149 0
-147 -150 0
-147 -151 0
-147 -152 0
-148 -149 0
-148 -150 0
-148 -151 0
-148 -152 0
-149 -150 0
-149 -151 0
-149 -152 0
-150 -151 0
-150 -152 0
-151 -152 0
-153 -154 0
-153 -155 0
-153 -156 0
-154 -155 0
-154 -156 0
-155 -156 0
-157 -158 0
-157 -159 0
-157 -160 0
-158 -159 0
-158 -160 0
-159 -160 0
-161 -162 0
-161 -163 0
-161 -164 0
-161 -165 0
-161 -166 0
-162 -163 0
-162 -164 0
-162 -165 0
-162 -166 0
-163 -164 0
-163 -165 0
-163 -166 0
-164 -165 0
-164 -166 0
-165 -166 0
-167 -168 0
-167 -169 0
-167 -170 0
-167 -171 0
-167 -172 0
-168 -169 0
-168 -170 0
-168 -171 0
-168 -172 0
-169 -170 0
-169 -171 0
-169 -172 0
-170 -171 0
-170 -172 0
-171 -172 0
-173 -174 0
-173 -175 0
-173 -176 0
-173 -177 0
-173 -178 0
-174 -175 0
-174 -176 0
-174 -177 0
-174 -178 0
-175 -176 0
-175 -177 0
-175 -178 0
-176 -177 0
-176 -178 0
-177 -178 0
-179 -180 0
-179 -181 0
-179 -182 0
-179 -183 0
-180 -181 0
-180 -182 0
-180 -183 0
-181 -182 0
-181 -183 0
-182 -183 0
-184 -185 0
-184 -186 0
-184 -187 0
-184 -188 0
-184 -189 0
-185 -186 0
-185 -187 0
-185 -188 0
-185 -189 0
-186 -187 0
-186 -188 0
-186 -189 0
-187 -188 0
-187 -189 0
-188 -189 0
-190 -191 0
-190 -192 0
-190 -193 0
-190 -194 0
-191 -192 0
-191 -193 0
-191 -194 0
-192 -193 0
-192 -194 0
-193 -194 0
-195 -196 0
-195 -197 0
-195 -198 0
-195 -199 0
-196 -197 0
-196 -198 0
-196 -199 0
-197 -198 0
-197 -199 0
-198 -199 0
-200 -201 0
-200 -202 0
-200 -203 0
-200 -204 0
-201 -202 0
-201 -203 0
-201 -204 0
-202 -203 0
-202 -204 0
-203 -204 0
-205 -206 0
-205 -207 0
-205 -208 0
-205 -209 0
-206 -207 0
-206 -208 0
-206 -209 0
-207 -208 0
-207 -209 0
-208 -209 0
-210 -211 0
-210 -212 0
-210 -213 0
-210 -214 0
-211 -212 0
-211 -213 0
-211 -214 0
-212 -213 0
-212 -214 0
-213 -214 0
-215 -216 0
-215 -217 0
-215 -218 0
-215 -219 0
-216 -217 0
-216 -218 0
-216 -219 0
-217 -218 0
-217 -219 0
-218 -219 0
-220 -221 0
-220 -222 0
-220 -223 0
-220 -224 0
-221 -222 0
-221 -223 0
-221 -224 0
-222 -223 0
-222 -224 0
-223 -224 0
-225 -226 0
-225 -227 0
-226 -227 0
-228 -229 0
-228 -230 0
-229 -230 0
-231 -232 0
-231 -233 0
-231 -234 0
-232 -233 0
-232 -234 0
-233 -234 0
-235 -236 0
-235 -237 0
-235 -238 0
-236 -237 0
-236 -238 0
-237 -238 0
-239 -240 0
-239 -241 0
-239 -242 0
-239 -243 0
-240 -241 0
-240 -242 0
-240 -243 0
-241 -242 0
-241 -243 0
-242 -243 0
-244 -245 0
-244 -246 0
-244 -247 0
-244 -248 0
-245 -246 0
-245 -247 0
-245 -248 0
-246 -247 0
-246 -248 0
-247 -248 0
-249 -250 0
-249 -251 0
-249 -252 0
-249 -253 0
-250 -251 0
-250 -252 0
-250 -253 0
-251 -252 0
-251 -253 0
-252 -253 0
-254 -255 0
-254 -256 0
-254 -257 0
-254 -258 0
-255 -256 0
-255 -257 0
-255 -258 0
-256 -257 0
-256 -258 0
-257 -258 0
-259 -260 0
-259 -261 0
-259 -262 0
-259 -263 0
-259 -264 0
-260 -261 0
-260 -262 0
-260 -263 0
-260 -264 0
-261 -262 0
-261 -263 0
-261 -264 0
-262 -263 0
-262 -264 0
-263 -264 0
-265 -266 0
-265 -267 0
-265 -268 0
-266 -267 0
-266 -268 0
-267 -268 0
-269 -270 0
-269 -271 0
-269 -272 0
-269 -273 0
-270 -271 0
-270 -272 0
-270 -273 0
-271 -272 0
-271 -273 0
-272 -273 0
-274 -275 0
-274 -276 0
-274 -277 0
-274 -278 0
-275 -276 0
-275 -277 0
-275 -278 0
-276 -277 0
-276 -278 0
-277 -278 0
-279 -280 0
-279 -281 0
-279 -282 0
-279 -283 0
-280 -281 0
-280 -282 0
-280 -283 0
-281 -282 0
-281 -283 0
-282 -283 0
-284 -285 0
-284 -286 0
-284 -287 0
-285 -286 0
-285 -287 0
-286 -287 0
-288 -289 0
-288 -290 0
-289 -290 0
-291 -292 0
-291 -293 0
-291 -294 0
-291 -295 0
-292 -293 0
-292 -294 0
-292 -295 0
-293 -294 0
-293 -295 0
-294 -295 0
10 15 20 27 0
1 5 11 16 21 23 28 0
2 6 12 17 0
7 24 29 0
8 13 18 25 30 0
3 9 31 0
4 14 19 22 26 0
32 36 42 48 52 57 61 0
33 37 43 0
38 53 58 62 0
44 49 54 59 0
39 45 55 60 63 0
34 40 46 50 56 64 0
35 41 47 51 0
77 82 91 0
65 69 72 78 83 87 92 0
84 88 0
70 73 79 89 93 0
66 71 74 94 0
67 75 80 85 90 95 0
68 76 81 86 0
96 104 108 114 0
97 100 105 109 115 119 124 0
101 106 116 120 125 0
98 102 110 121 0
111 117 122 126 0
99 103 107 112 127 0
113 118 123 0
128 133 138 143 147 153 157 0
129 134 158 0
130 135 144 148 154 159 0
131 139 149 155 0
132 136 140 150 156 160 0
137 141 145 151 0
142 146 152 0
161 167 173 179 184 0
162 168 174 180 185 190 195 200 0
163 169 191 201 0
170 181 186 192 196 202 0
164 175 187 193 197 0
176 182 194 198 203 0
165 171 177 188 199 204 0
166 172 178 183 189 0
205 210 215 220 228 0
206 211 216 221 225 229 0
207 212 217 222 226 0
223 227 230 0
208 213 218 0
209 214 219 224 0
231 239 244 249 259 0
232 235 240 245 250 254 260 0
233 236 241 246 255 261 0
251 256 262 0
237 242 257 263 0
234 238 243 247 252 0
248 253 258 264 0
269 274 279 284 288 291 0
265 270 275 280 285 289 292 0
266 271 276 281 293 0
267 0
268 272 290 294 0
277 282 286 295 0
273 278 283 287 0
-10 -15 0
-10 -20 0
-10 -27 0
-15 -20 0
-15 -27 0
-20 -27 0
-1 -5 0
-1 -11 0
-1 -16 0
-1 -21 0
-1 -23 0
-1 -28 0
-5 -11 0
-5 -16 0
-5 -21 0
-5 -23 0
-5 -28 0
-11 -16 0
-11 -21 0
-11 -23 0
-11 -28 0
-16 -21 0
-16 -23 0
-16 -28 0
-21 -23 0
-21 -28 0
-23 -28 0
-2 -6 0
-2 -12 0
-2 -17 0
-6 -12 0
-6 -17 0
-12 -17 0
-7 -24 0
-7 -29 0
-24 -29 0
-8 -13 0
-8 -18 0
-8 -25 0
-8 -30 0
-13 -18 0
-13 -25 0
-13 -30 0
-18 -25 0
-18 -30 0
-25 -30 0
-3 -9 0
-3 -31 0
-9 -31 0
-4 -14 0
-4 -19 0
-4 -22 0
-4 -26 0
-14 -19 0
-14 -22 0
-14 -26 0
-19 -22 0
-19 -26 0
-22 -26 0
-32 -36 0
-32 -42 0
-32 -48 0
-32 -52 0
-32 -57 0
-32 -61 0
-36 -42 0
-36 -48 0
-36 -52 0
-36 -57 0
-36 -61 0
-42 -48 0
-42 -52 0
-42 -57 0
-42 -61 0
-48 -52 0
-48 -57 0
-48 -61 0
-52 -57 0
-52 -61 0
-57 -61 0
-33 -37 0
-33 -43 0
-37 -43 0
-38 -53 0
-38 -58 0
-38 -62 0
-53 -58 0
-53 -62 0
-58 -62 0
-44 -49 0
-44 -54 0
-44 -59 0
-49 -54 0
-49 -59 0
-54 -59 0
-39 -45 0
-39 -55 0
-39 -60 0
-39 -63 0
-45 -55 0
-45 -60 0
-45 -63 0
-55 -60 0
-55 -63 0
-60 -63 0
-34 -40 0
-34 -46 0
-34 -50 0
-34 -56 0
-34 -64 0
-40 -46 0
-40 -50 0
-40 -56 0
-40 -64 0
-46 -50 0
-46 -56 0
-46 -64 0
-50 -56 0
-50 -64 0
-56 -64 0
-35 -41 0
-35 -47 0
-35 -51 0
-41 -47 0
-41 -51 0
-47 -51 0
-77 -82 0
-77 -91 0
-82 -91 0
-65 -69 0
-65 -72 0
-65 -78 0
-65 -83 0
-65 -87 0
-65 -92 0
-69 -72 0
-69 -78 0
-69 -83 0
-69 -87 0
-69 -92 0
-72 -78 0
-72 -83 0
-72 -87 0
-72 -92 0
-78 -83 0
-78 -87 0
-78 -92 0
-83 -87 0
-83 -92 0
-87 -92 0
-84 -88 0
-70 -73 0
-70 -79 0
-70 -89 0
-70 -93 0
-73 -79 0
-73 -89 0
-73 -93 0
-79 -89 0
-79 -93 0
-89 -93 0
-66 -71 0
-66 -74 0
-66 -94 0
-71 -74 0
-71 -94 0
-74 -94 0
-67 -75 0
-67 -80 0
-67 -85 0
-67 -90 0
-67 -95 0
-75 -80 0
-75 -85 0
-75 -90 0
-75 -95 0
-80 -85 0
-80 -90 0
-80 -95 0
-85 -90 0
-85 -95 0
-90 -95 0
-68 -76 0
-68 -81 0
-68 -86 0
-76 -81 0
-76 -86 0
-81 -86 0
-96 -104 0
-96 -108 0
-96 -114 0
-104 -108 0
-104 -114 0
-108 -114 0
-97 -100 0
-97 -105 0
-97 -109 0
-97 -115 0
-97 -119 0
-97 -124 0
-100 -105 0
-100 -109 0
-100 -115 0
-100 -119 0
-100 -124 0
-105 -109 0
-105 -115 0
-105 -119 0
-105 -124 0
-109 -115 0
-109 -119 0
-109 -124 0
-115 -119 0
-115 -124 0
-119 -124 0
-101 -106 0
-101 -116 0
-101 -120 0
-101 -125 0
-106 -116 0
-106 -120 0
-106 -125 0
-116 -120 0
-116 -125 0
-120 -125 0
-98 -102 0
-98 -110 0
-98 -121 0
-102 -110 0
-102 -121 0
-110 -121 0
-111 -117 0
-111 -122 0
-111 -126 0
-117 -122 0
-117 -126 0
-122 -126 0
-99 -103 0
-99 -107 0
-99 -112 0
-99 -127 0
-103 -107 0
-103 -112 0
-103 -127 0
-107 -112 0
-107 -127 0
-112 -127 0
-113 -118 0
-113 -123 0
-118 -123 0
-128 -133 0
-128 -138 0
-128 -143 0
-128 -147 0
-128 -153 0
-128 -157 0
-133 -138 0
-133 -143 0
-133 -147 0
-133 -153 0
-133 -157 0
-138 -143 0
-138 -147 0
-138 -153 0
-138 -157 0
-143 -147 0
-143 -153 0
-143 -157 0
-147 -153 0
-147 -157 0
-153 -157 0
-129 -134 0
-129 -158 0
-134 -158 0
-130 -135 0
-130 -144 0
-130 -148 0
-130 -154 0
-130 -159 0
-135 -144 0
-135 -148 0
-135 -154 0
-135 -159 0
-144 -148 0
-144 -154 0
-144 -159 0
-148 -154 0
-148 -159 0
-154 -159 0
-131 -139 0
-131 -149 0
-131 -155 0
-139 -149 0
-139 -155 0
-149 -155 0
-132 -136 0
-132 -140 0
-132 -150 0
-132 -156 0
-132 -160 0
-136 -140 0
-136 -150 0
-136 -156 0
-136 -160 0
-140 -150 0
-140 -156 0
-140 -160 0
-150 -156 0
-150 -160 0
-156 -160 0
-137 -141 0
-137 -145 0
-137 -151 0
-141 -145 0
-141 -151 0
-145 -151 0
-142 -146 0
-142 -152 0
-146 -152 0
-161 -167 0
-161 -173 0
-161 -179 0
-161 -184 0
-167 -173 0
-167 -179 0
-167 -184 0
-173 -179 0
-173 -184 0
-179 -184 0
-162 -168 0
-162 -174 0
-162 -180 0
-162 -185 0
-162 -190 0
-162 -195 0
-162 -200 0
-168 -174 0
-168 -180 0
-168 -185 0
-168 -190 0
-168 -195 0
-168 -200 0
-174 -180 0
-174 -185 0
-174 -190 0
-174 -195 0
-174 -200 0
-180 -185 0
-180 -190 0
-180 -195 0
-180 -200 0
-185 -190 0
-185 -195 0
-185 -200 0
-190 -195 0
-190 -200 0
-195 -200 0
-163 -169 0
-163 -191 0
-163 -201 0
-169 -191 0
-169 -201 0
-191 -201 0
-170 -181 0
-170 -186 0
-170 -192 0
-170 -196 0
-170 -202 0
-181 -186 0
-181 -192 0
-181 -196 0
-181 -202 0
-186 -192 0
-186 -196 0
-186 -202 0
-192 -196 0
-192 -202 0
-196 -202 0
-164 -175 0
-164 -187 0
-164 -193 0
-164 -197 0
-175 -187 0
-175 -193 0
-175 -197 0
-187 -193 0
-187 -197 0
-193 -197 0
-176 -182 0
-176 -194 0
-176 -198 0
-176 -203 0
-182 -194 0
-182 -198 0
-182 -203 0
-194 -198 0
-194 -203 0
-198 -203 0
-165 -171 0
-165 -177 0
-165 -188 0
-165 -199 0
-165 -204 0
-171 -177 0
-171 -188 0
-171 -199 0
-171 -204 0
-177 -188 0
-177 -199 0
-177 -204 0
-188 -199 0
-188 -204 0
-199 -204 0
-166 -172 0
-166 -178 0
-166 -183 0
-166 -189 0
-172 -178 0
-172 -183 0
-172 -189 0
-178 -183 0
-178 -189 0
-183 -189 0
-205 -210 0
-205 -215 0
-205 -220 0
-205 -228 0
-210 -215 0
-210 -220 0
-210 -228 0
-215 -220 0
-215 -228 0
-220 -228 0
-206 -211 0
-206 -216 0
-206 -221 0
-206 -225 0
-206 -229 0
-211 -216 0
-211 -221 0
-211 -225 0
-211 -229 0
-216 -221 0
-216 -225 0
-216 -229 0
-221 -225 0
-221 -229 0
-225 -229 0
-207 -212 0
-207 -217 0
-207 -222 0
-207 -226 0
-212 -217 0
-212 -222 0
-212 -226 0
-217 -222 0
-217 -226 0
-222 -226 0
-223 -227 0
-223 -230 0
-227 -230 0
-208 -213 0
-208 -218 0
-213 -218 0
-209 -214 0
-209 -219 0
-209 -224 0
-214 -219 0
-214 -224 0
-219 -224 0
-231 -239 0
-231 -244 0
-231 -249 0
-231 -259 0
-239 -244 0
-239 -249 0
-239 -259 0
-244 -249 0
-244 -259 0
-249 -259 0
-232 -235 0
-232 -240 0
-232 -245 0
-232 -250 0
-232 -254 0
-232 -260 0
-235 -240 0
-235 -245 0
-235 -250 0
-235 -254 0
-235 -260 0
-240 -245 0
-240 -250 0
-240 -254 0
-240 -260 0
-245 -250 0
-245 -254 0
-245 -260 0
-250 -254 0
-250 -260 0
-254 -260 0
-233 -236 0
-233 -241 0
-233 -246 0
-233 -255 0
-233 -261 0
-236 -241 0
-236 -246 0
-236 -255 0
-236 -261 0
-241 -246 0
-241 -255 0
-241 -261 0
-246 -255 0
-246 -261 0
-255 -261 0
-251 -256 0
-251 -262 0
-256 -262 0
-237 -242 0
-237 -257 0
-237 -263 0
-242 -257 0
-242 -263 0
-257 -263 0
-234 -238 0
-234 -243 0
-234 -247 0
-234 -252 0
-238 -243 0
-238 -247 0
-238 -252 0
-243 -247 0
-243 -252 0
-247 -252 0
-248 -253 0
-248 -258 0
-248 -264 0
-253 -258 0
-253 -264 0
-258 -264 0
-269 -274 0
-269 -279 0
-269 -284 0
-269 -288 0
-269 -291 0
-274 -279 0
-274 -284 0
-274 -288 0
-274 -291 0
-279 -284 0
-279 -288 0
-279 -291 0
-284 -288 0
-284 -291 0
-288 -291 0
-265 -270 0
-265 -275 0
-265 -280 0
-265 -285 0
-265 -289 0
-265 -292 0
-270 -275 0
-270 -280 0
-270 -285 0
-270 -289 0
-270 -292 0
-275 -280 0
-275 -285 0
-275 -289 0
-275 -292 0
-280 -285 0
-280 -289 0
-280 -292 0
-285 -289 0
-285 -292 0
-289 -292 0
-266 -271 0
-266 -276 0
-266 -281 0
-266 -293 0
-271 -276 0
-271 -281 0
-271 -293 0
-276 -281 0
-276 -293 0
-281 -293 0
-268 -272 0
-268 -290 0
-268 -294 0
-272 -290 0
-272 -294 0
-290 -294 0
-277 -282 0
-277 -286 0
-277 -295 0
-282 -286 0
-282 -295 0
-286 -295 0
-273 -278 0
-273 -283 0
-273 -287 0
-278 -283 0
-278 -287 0
-283 -287 0
96 161 205 231 0
1 32 65 97 162 206 232 0
2 33 163 207 233 0
98 164 0
3 66 99 165 208 234 0
4 34 67 166 0
35 68 209 0
5 69 100 128 235 265 0
6 129 236 266 0
7 101 130 0
102 131 267 0
8 70 237 268 0
9 71 103 132 238 0
104 167 210 239 269 0
36 72 105 133 168 211 240 270 0
37 134 169 212 241 271 0
38 106 135 170 0
39 73 242 272 0
74 107 136 171 213 243 0
40 75 137 172 0
41 76 214 273 0
10 108 173 215 244 274 0
11 42 109 138 174 216 245 275 0
12 43 217 246 276 0
44 110 139 175 0
13 45 111 176 0
112 140 177 218 247 0
14 46 141 178 248 277 0
47 113 142 219 278 0
15 77 114 179 220 279 0
16 78 115 143 180 221 280 0
17 222 281 0
116 144 181 223 0
18 79 117 182 0
19 80 145 183 282 0
81 118 146 224 283 0
20 82 184 249 284 0
21 48 83 147 185 250 285 0
148 186 251 0
49 84 149 187 0
150 188 252 0
22 50 85 151 189 253 286 0
51 86 152 287 0
23 52 87 119 190 225 254 0
191 226 255 0
24 53 120 192 227 256 0
54 88 121 193 0
25 55 89 122 194 257 0
26 56 90 258 0
123 0
27 228 288 0
28 57 153 195 229 289 0
29 58 154 196 230 0
59 155 197 0
30 60 198 290 0
31 156 199 0
91 259 291 0
61 92 124 157 200 260 292 0
158 201 261 293 0
62 125 159 202 262 0
63 93 126 203 263 294 0
94 127 160 204 0
64 95 264 295 0
-96 -161 0
-96 -205 0
-96 -231 0
-161 -205 0
-161 -231 0
-205 -231 0
-1 -32 0
-1 -65 0
-1 -97 0
-1 -162 0
-1 -206 0
-1 -232 0
-32 -65 0
-32 -97 0
-32 -162 0
-32 -206 0
-32 -232 0
-65 -97 0
-65 -162 0
-65 -206 0
-65 -232 0
-97 -162 0
-97 -206 0
-97 -232 0
-162 -206 0
-162 -232 0
-206 -232 0
-2 -33 0
-2 -163 0
-2 -207 0
-2 -233 0
-33 -163 0
-33 -207 0
-33 -233 0
-163 -207 0
-163 -233 0
-207 -233 0
-98 -164 0
-3 -66 0
-3 -99 0
-3 -165 0
-3 -208 0
-3 -234 0
-66 -99 0
-66 -165 0
-66 -208 0
-66 -234 0
-99 -165 0
-99 -208 0
-99 -234 0
-165 -208 0
-165 -234 0
-208 -234 0
-4 -34 0
-4 -67 0
-4 -166 0
-34 -67 0
-34 -166 0
-67 -166 0
-35 -68 0
-35 -209 0
-68 -209 0
-5 -69 0
-5 -100 0
-5 -128 0
-5 -235 0
-5 -265 0
-69 -100 0
-69 -128 0
-69 -235 0
-69 -265 0
-100 -128 0
-100 -235 0
-100 -265 0
-128 -235 0
-128 -265 0
-235 -265 0
-6 -129 0
-6 -236 0
-6 -266 0
-129 -236 0
-129 -266 0
-236 -266 0
-7 -101 0
-7 -130 0
-101 -130 0
-102 -131 0
-102 -267 0
-131 -267 0
-8 -70 0
-8 -237 0
-8 -268 0
-70 -237 0
-70 -268 0
-237 -268 0
-9 -71 0
-9 -103 0
-9 -132 0
-9 -238 0
-71 -103 0
-71 -132 0
-71 -238 0
-103 -132 0
-103 -238 0
-132 -238 0
-104 -167 0
-104 -210 0
-104 -239 0
-104 -269 0
-167 -210 0
-167 -239 0
-167 -269 0
-210 -239 0
-210 -269 0
-239 -269 0
-36 -72 0
-36 -105 0
-36 -133 0
-36 -168 0
-36 -211 0
-36 -240 0
-36 -270 0
-72 -105 0
-72 -133 0
-72 -168 0
-72 -211 0
-72 -240 0
-72 -270 0
-105 -133 0
-105 -168 0
-105 -211 0
-105 -240 0
-105 -270 0
-133 -168 0
-133 -211 0
-133 -240 0
-133 -270 0
-168 -211 0
-168 -240 0
-168 -270 0
-211 -240 0
-211 -270 0
-240 -270 0
-37 -134 0
-37 -169 0
-37 -212 0
-37 -241 0
-37 -271 0
-134 -169 0
-134 -212 0
-134 -241 0
-134 -271 0
-169 -212 0
-169 -241 0
-169 -271 0
-212 -241 0
-212 -271 0
-241 -271 0
-38 -106 0
-38 -135 0
-38 -170 0
-106 -135 0
-106 -170 0
-135 -170 0
-39 -73 0
-39 -242 0
-39 -272 0
-73 -242 0
-73 -272 0
-242 -272 0
-74 -107 0
-74 -136 0
-74 -171 0
-74 -213 0
-74 -243 0
-107 -136 0
-107 -171 0
-107 -213 0
-107 -243 0
-136 -171 0
-136 -213 0
-136 -243 0
-171 -213 0
-171 -243 0
-213 -243 0
-40 -75 0
-40 -137 0
-40 -172 0
-75 -137 0
-75 -172 0
-137 -172 0
-41 -76 0
-41 -214 0
-41 -273 0
-76 -214 0
-76 -273 0
-214 -273 0
-10 -108 0
-10 -173 0
-10 -215 0
-10 -244 0
-10 -274 0
-108 -173 0
-108 -215 0
-108 -244 0
-108 -274 0
-173 -215 0
-173 -244 0
-173 -274 0
-215 -244 0
-215 -274 0
-244 -274 0
-11 -42 0
-11 -109 0
-11 -138 0
-11 -174 0
-11 -216 0
-11 -245 0
-11 -275 0
-42 -109 0
-42 -138 0
-42 -174 0
-42 -216 0
-42 -245 0
-42 -275 0
-109 -138 0
-109 -174 0
-109 -216 0
-109 -245 0
-109 -275 0
-138 -174 0
-138 -216 0
-138 -245 0
-138 -275 0
-174 -216 0
-174 -245 0
-174 -275 0
-216 -245 0
-216 -275 0
-245 -275 0
-12 -43 0
-12 -217 0
-12 -246 0
-12 -276 0
-43 -217 0
-43 -246 0
-43 -276 0
-217 -246 0
-217 -276 0
-246 -276 0
-44 -110 0
-44 -139 0
-44 -175 0
-110 -139 0
-110 -175 0
-139 -175 0
-13 -45 0
-13 -111 0
-13 -176 0
-45 -111 0
-45 -176 0
-111 -176 0
-112 -140 0
-112 -177 0
-112 -218 0
-112 -247 0
-140 -177 0
-140 -218 0
-140 -247 0
-177 -218 0
-177 -247 0
-218 -247 0
-14 -46 0
-14 -141 0
-14 -178 0
-14 -248 0
-14 -277 0
-46 -141 0
-46 -178 0
-46 -248 0
-46 -277 0
-141 -178 0
-141 -248 0
-141 -277 0
-178 -248 0
-178 -277 0
-248 -277 0
-47 -113 0
-47 -142 0
-47 -219 0
-47 -278 0
-113 -142 0
-113 -219 0
-113 -278 0
-142 -219 0
-142 -278 0
-219 -278 0
-15 -77 0
-15 -114 0
-15 -179 0
-15 -220 0
-15 -279 0
-77 -114 0
-77 -179 0
-77 -220 0
-77 -279 0
-114 -179 0
-114 -220 0
-114 -279 0
-179 -220 0
-179 -279 0
-220 -279 0
-16 -78 0
-16 -115 0
-16 -143 0
-16 -180 0
-16 -221 0
-16 -280 0
-78 -115 0
-78 -143 0
-78 -180 0
-78 -221 0
-78 -280 0
-115 -143 0
-115 -180 0
-115 -221 0
-115 -280 0
-143 -180 0
-143 -221 0
-143 -280 0
-180 -221 0
-180 -280 0
-221 -280 0
-17 -222 0
-17 -281 0
-222 -281 0
-116 -144 0
-116 -181 0
-116 -223 0
-144 -181 0
-144 -223 0
-181 -223 0
-18 -79 0
-18 -117 0
-18 -182 0
-79 -117 0
-79 -182 0
-117 -182 0
-19 -80 0
-19 -145 0
-19 -183 0
-19 -282 0
-80 -145 0
-80 -183 0
-80 -282 0
-145 -183 0
-145 -282 0
-183 -282 0
-81 -118 0
-81 -146 0
-81 -224 0
-81 -283 0
-118 -146 0
-118 -224 0
-118 -283 0
-146 -224 0
-146 -283 0
-224 -283 0
-20 -82 0
-20 -184 0
-20 -249 0
-20 -284 0
-82 -184 0
-82 -249 0
-82 -284 0
-184 -249 0
-184 -284 0
-249 -284 0
-21 -48 0
-21 -83 0
-21 -147 0
-21 -185 0
-21 -250 0
-21 -285 0
-48 -83 0
-48 -147 0
-48 -185 0
-48 -250 0
-48 -285 0
-83 -147 0
-83 -185 0
-83 -250 0
-83 -285 0
-147 -185 0
-147 -250 0
-147 -285 0
-185 -250 0
-185 -285 0
-250 -285 0
-148 -186 0
-148 -251 0
-186 -251 0
-49 -84 0
-49 -149 0
-49 -187 0
-84 -149 0
-84 -187 0
-149 -187 0
-150 -188 0
-150 -252 0
-188 -252 0
-22 -50 0
-22 -85 0
-22 -151 0
-22 -189 0
-22 -253 0
-22 -286 0
-50 -85 0
-50 -151 0
-50 -189 0
-50 -253 0
-50 -286 0
-85 -151 0
-85 -189 0
-85 -253 0
-85 -286 0
-151 -189 0
-151 -253 0
-151 -286 0
-189 -253 0
-189 -286 0
-253 -286 0
-51 -86 0
-51 -152 0
-51 -287 0
-86 -152 0
-86 -287 0
-152 -287 0
-23 -52 0
-23 -87 0
-23 -119 0
-23 -190 0
-23 -225 0
-23 -254 0
-52 -87 0
-52 -119 0
-52 -190 0
-52 -225 0
-52 -254 0
-87 -119 0
-87 -190 0
-87 -225 0
-87 -254 0
-119 -190 0
-119 -225 0
-119 -254 0
-190 -225 0
-190 -254 0
-225 -254 0
-191 -226 0
-191 -255 0
-226 -255 0
-24 -53 0
-24 -120 0
-24 -192 0
-24 -227 0
-24 -256 0
-53 -120 0
-53 -192 0
-53 -227 0
-53 -256 0
-120 -192 0
-120 -227 0
-120 -256 0
-192 -227 0
-192 -256 0
-227 -256 0
-54 -88 0
-54 -121 0
-54 -193 0
-88 -121 0
-88 -193 0
-121 -193 0
-25 -55 0
-25 -89 0
-25 -122 0
-25 -194 0
-25 -257 0
-55 -89 0
-55 -122 0
-55 -194 0
-55 -257 0
-89 -122 0
-89 -194 0
-89 -257 0
-122 -194 0
-122 -257 0
-194 -257 0
-26 -56 0
-26 -90 0
-26 -258 0
-56 -90 0
-56 -258 0
-90 -258 0
-27 -228 0
-27 -288 0
-228 -288 0
-28 -57 0
-28 -153 0
-28 -195 0
-28 -229 0
-28 -289 0
-57 -153 0
-57 -195 0
-57 -229 0
-57 -289 0
-153 -195 0
-153 -229 0
-153 -289 0
-195 -229 0
-195 -289 0
-229 -289 0
-29 -58 0
-29 -154 0
-29 -196 0
-29 -230 0
-58 -154 0
-58 -196 0
-58 -230 0
-154 -196 0
-154 -230 0
-196 -230 0
-59 -155 0
-59 -197 0
-155 -197 0
-30 -60 0
-30 -198 0
-30 -290 0
-60 -198 0
-60 -290 0
-198 -290 0
-31 -156 0
-31 -199 0
-156 -199 0
-91 -259 0
-91 -291 0
-259 -291 0
-61 -92 0
-61 -124 0
-61 -157 0
-61 -200 0
-61 -260 0
-61 -292 0
-92 -124 0
-92 -157 0
-92 -200 0
-92 -260 0
-92 -292 0
-124 -157 0
-124 -200 0
-124 -260 0
-124 -292 0
-157 -200 0
-157 -260 0
-157 -292 0
-200 -260 0
-200 -292 0
-260 -292 0
-158 -201 0
-158 -261 0
-158 -293 0
-201 -261 0
-201 -293 0
-261 -293 0
-62 -125 0
-62 -159 0
-62 -202 0
-62 -262 0
-125 -159 0
-125 -202 0
-125 -262 0
-159 -202 0
-159 -262 0
-202 -262 0
-63 -93 0
-63 -126 0
-63 -203 0
-63 -263 0
-63 -294 0
-93 -126 0
-93 -203 0
-93 -263 0
-93 -294 0
-126 -203 0
-126 -263 0
-126 -294 0
-203 -263 0
-203 -294 0
-263 -294 0
-94 -127 0
-94 -160 0
-94 -204 0
-127 -160 0
-127 -204 0
-160 -204 0
-64 -95 0
-64 -264 0
-64 -295 0
-95 -264 0
-95 -295 0
-264 -295 0
1 5 32 36 65 69 72 0
2 6 33 37 0
7 38 0
8 39 70 73 0
3 9 66 71 74 0
4 34 40 67 75 0
35 41 68 76 0
10 15 20 77 82 0
11 16 21 42 48 78 83 0
12 17 43 0
44 49 84 0
13 18 45 79 0
14 19 22 46 50 80 85 0
47 51 81 86 0
27 91 0
23 28 52 57 61 87 92 0
24 29 53 58 62 0
54 59 88 0
25 30 55 60 63 89 93 0
31 94 0
26 56 64 90 95 0
96 104 161 167 0
97 100 105 128 133 162 168 0
129 134 163 169 0
101 106 130 135 170 0
98 102 131 164 0
99 103 107 132 136 165 171 0
137 166 172 0
108 114 173 179 184 0
109 115 138 143 147 174 180 185 0
116 144 148 181 186 0
110 139 149 175 187 0
111 117 176 182 0
112 140 150 177 188 0
141 145 151 178 183 189 0
113 118 142 146 152 0
119 124 153 157 190 195 200 0
158 191 201 0
120 125 154 159 192 196 202 0
121 155 193 197 0
122 126 194 198 203 0
127 156 160 199 204 0
123 0
205 210 231 239 269 0
206 211 232 235 240 265 270 0
207 212 233 236 241 266 271 0
267 0
237 242 268 272 0
208 213 234 238 243 0
209 214 273 0
215 220 244 249 274 279 284 0
216 221 245 250 275 280 285 0
217 222 246 276 281 0
223 251 0
218 247 252 0
248 253 277 282 286 0
219 224 278 283 287 0
228 259 288 291 0
225 229 254 260 289 292 0
226 255 261 293 0
227 230 256 262 0
257 263 290 294 0
258 264 295 0
-1 -5 0
-1 -32 0
-1 -36 0
-1 -65 0
-1 -69 0
-1 -72 0
-5 -32 0
-5 -36 0
-5 -65 0
-5 -69 0
-5 -72 0
-32 -36 0
-32 -65 0
-32 -69 0
-32 -72 0
-36 -65 0
-36 -69 0
-36 -72 0
-65 -69 0
-65 -72 0
-69 -72 0
-2 -6 0
-2 -33 0
-2 -37 0
-6 -33 0
-6 -37 0
-33 -37 0
-7 -38 0
-8 -39 0
-8 -70 0
-8 -73 0
-39 -70 0
-39 -73 0
-70 -73 0
-3 -9 0
-3 -66 0
-3 -71 0
-3 -74 0
-9 -66 0
-9 -71 0
-9 -74 0
-66 -71 0
-66 -74 0
-71 -74 0
-4 -34 0
-4 -40 0
-4 -67 0
-4 -75 0
-34 -40 0
-34 -67 0
-34 -75 0
-40 -67 0
-40 -75 0
-67 -75 0
-35 -41 0
-35 -68 0
-35 -76 0
-41 -68 0
-41 -76 0
-68 -76 0
-10 -15 0
-10 -20 0
-10 -77 0
-10 -82 0
-15 -20 0
-15 -77 0
-15 -82 0
-20 -77 0
-20 -82 0
-77 -82 0
-11 -16 0
-11 -21 0
-11 -42 0
-11 -48 0
-11 -78 0
-11 -83 0
-16 -21 0
-16 -42 0
-16 -48 0
-16 -78 0
-16 -83 0
-21 -42 0
-21 -48 0
-21 -78 0
-21 -83 0
-42 -48 0
-42 -78 0
-42 -83 0
-48 -78 0
-48 -83 0
-78 -83 0
-12 -17 0
-12 -43 0
-17 -43 0
-44 -49 0
-44 -84 0
-49 -84 0
-13 -18 0
-13 -45 0
-13 -79 0
-18 -45 0
-18 -79 0
-45 -79 0
-14 -19 0
-14 -22 0
-14 -46 0
-14 -50 0
-14 -80 0
-14 -85 0
-19 -22 0
-19 -46 0
-19 -50 0
-19 -80 0
-19 -85 0
-22 -46 0
-22 -50 0
-22 -80 0
-22 -85 0
-46 -50 0
-46 -80 0
-46 -85 0
-50 -80 0
-50 -85 0
-80 -85 0
-47 -51 0
-47 -81 0
-47 -86 0
-51 -81 0
-51 -86 0
-81 -86 0
-27 -91 0
-23 -28 0
-23 -52 0
-23 -57 0
-23 -61 0
-23 -87 0
-23 -92 0
-28 -52 0
-28 -57 0
-28 -61 0
-28 -87 0
-28 -92 0
-52 -57 0
-52 -61 0
-52 -87 0
-52 -92 0
-57 -61 0
-57 -87 0
-57 -92 0
-61 -87 0
-61 -92 0
-87 -92 0
-24 -29 0
-24 -53 0
-24 -58 0
-24 -62 0
-29 -53 0
-29 -58 0
-29 -62 0
-53 -58 0
-53 -62 0
-58 -62 0
-54 -59 0
-54 -88 0
-59 -88 0
-25 -30 0
-25 -55 0
-25 -60 0
-25 -63 0
-25 -89 0
-25 -93 0
-30 -55 0
-30 -60 0
-30 -63 0
-30 -89 0
-30 -93 0
-55 -60 0
-55 -63 0
-55 -89 0
-55 -93 0
-60 -63 0
-60 -89 0
-60 -93 0
-63 -89 0
-63 -93 0
-89 -93 0
-31 -94 0
-26 -56 0
-26 -64 0
-26 -90 0
-26 -95 0
-56 -64 0
-56 -90 0
-56 -95 0
-64 -90 0
-64 -95 0
-90 -95 0
-96 -104 0
-96 -161 0
-96 -167 0
-104 -161 0
-104 -167 0
-161 -167 0
-97 -100 0
-97 -105 0
-97 -128 0
-97 -133 0
-97 -162 0
-97 -168 0
-100 -105 0
-100 -128 0
-100 -133 0
-100 -162 0
-100 -168 0
-105 -128 0
-105 -133 0
-105 -162 0
-105 -168 0
-128 -133 0
-128 -162 0
-128 -168 0
-133 -162 0
-133 -168 0
-162 -168 0
-129 -134 0
-129 -163 0
-129 -169 0
-134 -163 0
-134 -169 0
-163 -169 0
-101 -106 0
-101 -130 0
-101 -135 0
-101 -170 0
-106 -130 0
-106 -135 0
-106 -170 0
-130 -135 0
-130 -170 0
-135 -170 0
-98 -102 0
-98 -131 0
-98 -164 0
-102 -131 0
-102 -164 0
-131 -164 0
-99 -103 0
-99 -107 0
-99 -132 0
-99 -136 0
-99 -165 0
-99 -171 0
-103 -107 0
-103 -132 0
-103 -136 0
-103 -165 0
-103 -171 0
-107 -132 0
-107 -136 0
-107 -165 0
-107 -171 0
-132 -136 0
-132 -165 0
-132 -171 0
-136 -165 0
-136 -171 0
-165 -171 0
-137 -166 0
-137 -172 0
-166 -172 0
-108 -114 0
-108 -173 0
-108 -179 0
-108 -184 0
-114 -173 0
-114 -179 0
-114 -184 0
-173 -179 0
-173 -184 0
-179 -184 0
-109 -115 0
-109 -138 0
-109 -143 0
-109 -147 0
-109 -174 0
-109 -180 0
-109 -185 0
-115 -138 0
-115 -143 0
-115 -147 0
-115 -174 0
-115 -180 0
-115 -185 0
-138 -143 0
-138 -147 0
-138 -174 0
-138 -180 0
-138 -185 0
-143 -147 0
-143 -174 0
-143 -180 0
-143 -185 0
-147 -174 0
-147 -180 0
-147 -185 0
-174 -180 0
-174 -185 0
-180 -185 0
-116 -144 0
-116 -148 0
-116 -181 0
-116 -186 0
-144 -148 0
-144 -181 0
-144 -186 0
-148 -181 0
-148 -186 0
-181 -186 0
-110 -139 0
-110 -149 0
-110 -175 0
-110 -187 0
-139 -149 0
-139 -175 0
-139 -187 0
-149 -175 0
-149 -187 0
-175 -187 0
-111 -117 0
-111 -176 0
-111 -182 0
-117 -176 0
-117 -182 0
-176 -182 0
-112 -140 0
-112 -150 0
-112 -177 0
-112 -188 0
-140 -150 0
-140 -177 0
-140 -188 0
-150 -177 0
-150 -188 0
-177 -188 0
-141 -145 0
-141 -151 0
-141 -178 0
-141 -183 0
-141 -189 0
-145 -151 0
-145 -178 0
-145 -183 0
-145 -189 0
-151 -178 0
-151 -183 0
-151 -189 0
-178 -183 0
-178 -189 0
-183 -189 0
-113 -118 0
-113 -142 0
-113 -146 0
-113 -152 0
-118 -142 0
-118 -146 0
-118 -152 0
-142 -146 0
-142 -152 0
-146 -152 0
-119 -124 0
-119 -153 0
-119 -157 0
-119 -190 0
-119 -195 0
-119 -200 0
-124 -153 0
-124 -157 0
-124 -190 0
-124 -195 0
-124 -200 0
-153 -157 0
-153 -190 0
-153 -195 0
-153 -200 0
-157 -190 0
-157 -195 0
-157 -200 0
-190 -195 0
-190 -200 0
-195 -200 0
-158 -191 0
-158 -201 0
-191 -201 0
-120 -125 0
-120 -154 0
-120 -159 0
-120 -192 0
-120 -196 0
-120 -202 0
-125 -154 0
-125 -159 0
-125 -192 0
-125 -196 0
-125 -202 0
-154 -159 0
-154 -192 0
-154 -196 0
-154 -202 0
-159 -192 0
-159 -196 0
-159 -202 0
-192 -196 0
-192 -202 0
-196 -202 0
-121 -155 0
-121 -193 0
-121 -197 0
-155 -193 0
-155 -197 0
-193 -197 0
-122 -126 0
-122 -194 0
-122 -198 0
-122 -203 0
-126 -194 0
-126 -198 0
-126 -203 0
-194 -198 0
-194 -203 0
-198 -203 0
-127 -156 0
-127 -160 0
-127 -199 0
-127 -204 0
-156 -160 0
-156 -199 0
-156 -204 0
-160 -199 0
-160 -204 0
-199 -204 0
-205 -210 0
-205 -231 0
-205 -239 0
-205 -269 0
-210 -231 0
-210 -239 0
-210 -269 0
-231 -239 0
-231 -269 0
-239 -269 0
-206 -211 0
-206 -232 0
-206 -235 0
-206 -240 0
-206 -265 0
-206 -270 0
-211 -232 0
-211 -235 0
-211 -240 0
-211 -265 0
-211 -270 0
-232 -235 0
-232 -240 0
-232 -265 0
-232 -270 0
-235 -240 0
-235 -265 0
-235 -270 0
-240 -265 0
-240 -270 0
-265 -270 0
-207 -212 0
-207 -233 0
-207 -236 0
-207 -241 0
-207 -266 0
-207 -271 0
-212 -233 0
-212 -236 0
-212 -241 0
-212 -266 0
-212 -271 0
-233 -236 0
-233 -241 0
-233 -266 0
-233 -271 0
-236 -241 0
-236 -266 0
-236 -271 0
-241 -266 0
-241 -271 0
-266 -271 0
-237 -242 0
-237 -268 0
-237 -272 0
-242 -268 0
-242 -272 0
-268 -272 0
-208 -213 0
-208 -234 0
-208 -238 0
-208 -243 0
-213 -234 0
-213 -238 0
-213 -243 0
-234 -238 0
-234 -243 0
-238 -243 0
-209 -214 0
-209 -273 0
-214 -273 0
-215 -220 0
-215 -244 0
-215 -249 0
-215 -274 0
-215 -279 0
-215 -284 0
-220 -244 0
-220 -249 0
-220 -274 0
-220 -279 0
-220 -284 0
-244 -249 0
-244 -274 0
-244 -279 0
-244 -284 0
-249 -274 0
-249 -279 0
-249 -284 0
-274 -279 0
-274 -284 0
-279 -284 0
-216 -221 0
-216 -245 0
-216 -250 0
-216 -275 0
-216 -280 0
-216 -285 0
-221 -245 0
-221 -250 0
-221 -275 0
-221 -280 0
-221 -285 0
-245 -250 0
-245 -275 0
-245 -280 0
-245 -285 0
-250 -275 0
-250 -280 0
-250 -285 0
-275 -280 0
-275 -285 0
-280 -285 0
-217 -222 0
-217 -246 0
-217 -276 0
-217 -281 0
-222 -246 0
-222 -276 0
-222 -281 0
-246 -276 0
-246 -281 0
-276 -281 0
-223 -251 0
-218 -247 0
-218 -252 0
-247 -252 0
-248 -253 0
-248 -277 0
-248 -282 0
-248 -286 0
-253 -277 0
-253 -282 0
-253 -286 0
-277 -282 0
-277 -286 0
-282 -286 0
-219 -224 0
-219 -278 0
-219 -283 0
-219 -287 0
-224 -278 0
-224 -283 0
-224 -287 0
-278 -283 0
-278 -287 0
-283 -287 0
-228 -259 0
-228 -288 0
-228 -291 0
-259 -288 0
-259 -291 0
-288 -291 0
-225 -229 0
-225 -254 0
-225 -260 0
-225 -289 0
-225 -292 0
-229 -254 0
-229 -260 0
-229 -289 0
-229 -292 0
-254 -260 0
-254 -289 0
-254 -292 0
-260 -289 0
-260 -292 0
-289 -292 0
-226 -255 0
-226 -261 0
-226 -293 0
-255 -261 0
-255 -293 0
-261 -293 0
-227 -230 0
-227 -256 0
-227 -262 0
-230 -256 0
-230 -262 0
-256 -262 0
-257 -263 0
-257 -290 0
-257 -294 0
-263 -290 0
-263 -294 0
-290 -294 0
-258 -264 0
-258 -295 0
-264 -295 0
